
Gurobi 11.0.0 (linux64) logging started Tue Sep 17 02:16:44 2024

Set parameter LogFile to value "gurobi.log"
Set parameter InfUnbdInfo to value 1
Gurobi Optimizer version 11.0.0 build v11.0.0rc2 (linux64 - "Ubuntu 22.04.4 LTS")

CPU model: AMD EPYC 7V13 64-Core Processor, instruction set [SSE2|AVX|AVX2]
Thread count: 128 physical cores, 128 logical processors, using up to 32 threads

Optimize a model with 53 rows, 666 columns and 147 nonzeros
Model fingerprint: 0x09810d3a
Model has 678 quadratic constraints
Model has 1 general constraint
Variable types: 180 continuous, 486 integer (0 binary)
Coefficient statistics:
  Matrix range     [1e+00, 4e+04]
  QMatrix range    [1e+00, 4e+04]
  QLMatrix range   [1e+00, 4e+04]
  Objective range  [1e+00, 1e+00]
  Bounds range     [1e+00, 3e+11]
  RHS range        [1e+00, 1e+00]
  QRHS range       [1e+00, 2e+06]
Warning: Model contains large bounds
         Consider reformulating model or setting NumericFocus parameter
         to avoid numerical issues.
Using branch priorities (all 0).
Presolve added 46 rows and 0 columns
Presolve removed 0 rows and 85 columns
Presolve time: 0.01s
Presolved: 2276 rows, 861 columns, 5890 nonzeros
Presolved model has 18 SOS constraint(s)
Presolved model has 387 bilinear constraint(s)
Warning: Model contains variables with very large bounds participating
         in product terms.
         Presolve was not able to compute smaller bounds for these variables.
         Consider bounding these variables or reformulating the model.


Solving non-convex MIQCP

Variable types: 266 continuous, 595 integer (224 binary)

Root relaxation: objective 1.986412e+04, 243 iterations, 0.00 seconds (0.00 work units)

    Nodes    |    Current Node    |     Objective Bounds      |     Work
 Expl Unexpl |  Obj  Depth IntInf | Incumbent    BestBd   Gap | It/Node Time

     0     0 19864.1161    0  115          - 19864.1161      -     -    0s
     0     0 54080.3601    0  127          - 54080.3601      -     -    0s
H    0     0                    3.781587e+08 54080.3601   100%     -    0s
H    0     0                    1.545328e+07 54642.8365   100%     -    0s
H    0     0                    1.535657e+07 54642.8365   100%     -    0s
     0     0 54642.8365    0  228 1.5357e+07 54642.8365   100%     -    0s
     0     0 54650.6365    0  232 1.5357e+07 54650.6365   100%     -    0s
H    0     0                    634143.00000 54650.6365  91.4%     -    0s
     0     0 54674.4674    0  219 634143.000 54674.4674  91.4%     -    0s
H    0     0                    597987.00000 54674.8729  90.9%     -    0s
H    0     0                    587537.00000 54674.8729  90.7%     -    0s
     0     0 54675.1708    0  203 587537.000 54675.1708  90.7%     -    0s
     0     0 54716.4748    0  206 587537.000 54716.4748  90.7%     -    0s
H    0     0                    282675.00000 54716.8155  80.6%     -    0s
     0     0 54717.8438    0  216 282675.000 54717.8438  80.6%     -    0s
     0     0 54742.1086    0  223 282675.000 54742.1086  80.6%     -    0s
H    0     0                    282410.00000 54742.1387  80.6%     -    0s
     0     0 54743.3897    0  197 282410.000 54743.3897  80.6%     -    0s
     0     0 54743.3918    0  193 282410.000 54743.3918  80.6%     -    0s
     0     0 54910.1310    0  190 282410.000 54910.1310  80.6%     -    0s
H    0     0                    230340.00000 54910.1310  76.2%     -    0s
     0     0 54911.1927    0  179 230340.000 54911.1927  76.2%     -    0s
     0     0 54929.2522    0  175 230340.000 54929.2522  76.2%     -    0s
     0     0 55077.4686    0  180 230340.000 55077.4686  76.1%     -    0s
     0     0 55230.0454    0  134 230340.000 55230.0454  76.0%     -    0s
H    0     0                    213965.00000 55232.3933  74.2%     -    0s
     0     0 55232.3933    0  139 213965.000 55232.3933  74.2%     -    0s
     0     0 55232.3933    0  127 213965.000 55232.3933  74.2%     -    0s
H    0     0                    194015.00000 55233.1837  71.5%     -    0s
     0     0 55233.1837    0  145 194015.000 55233.1837  71.5%     -    0s
     0     0 55233.1837    0  143 194015.000 55233.1837  71.5%     -    0s
     0     0 55236.1089    0  166 194015.000 55236.1089  71.5%     -    0s
H    0     0                    177795.00000 55237.7367  68.9%     -    0s
     0     0 55237.7367    0  107 177795.000 55237.7367  68.9%     -    0s
     0     0 55237.7367    0  163 177795.000 55237.7367  68.9%     -    1s
     0     0 55237.7367    0  128 177795.000 55237.7367  68.9%     -    1s
     0     0 55237.7367    0  175 177795.000 55237.7367  68.9%     -    1s
     0     0 55237.7367    0  162 177795.000 55237.7367  68.9%     -    1s
     0     0 55237.7367    0  196 177795.000 55237.7367  68.9%     -    1s
     0     0 55237.7367    0  161 177795.000 55237.7367  68.9%     -    1s
     0     0 55237.7367    0  162 177795.000 55237.7367  68.9%     -    1s
     0     0 55237.7367    0  149 177795.000 55237.7367  68.9%     -    1s
     0     0 55237.7367    0  150 177795.000 55237.7367  68.9%     -    1s
     0     0 55237.7367    0  140 177795.000 55237.7367  68.9%     -    1s
     0     0 55681.6619    0  150 177795.000 55681.6619  68.7%     -    1s
     0     0 56187.0826    0  152 177795.000 56187.0826  68.4%     -    1s
     0     0 62296.2701    0  155 177795.000 62296.2701  65.0%     -    1s
     0     0 71713.2039    0  151 177795.000 71713.2039  59.7%     -    1s
     0     0 73150.9644    0  154 177795.000 73150.9644  58.9%     -    1s
     0     0 73161.7076    0  154 177795.000 73161.7076  58.9%     -    1s
H    0     0                    177645.00000 73161.7076  58.8%     -    1s
     0     0 73201.1981    0  161 177645.000 73201.1981  58.8%     -    1s
H    0     0                    157845.00000 73201.1981  53.6%     -    1s
     0     0 73351.7076    0  161 157845.000 73351.7076  53.5%     -    1s
     0     0 73418.5556    0  156 157845.000 73418.5556  53.5%     -    1s
     0     0 74020.1802    0  156 157845.000 74020.1802  53.1%     -    1s
H    0     0                    139995.00000 74020.1802  47.1%     -    1s
     0     0 74020.1802    0   76 139995.000 74020.1802  47.1%     -    1s
     0     0 74020.1802    0  108 139995.000 74020.1802  47.1%     -    1s
     0     0 74020.1802    0  122 139995.000 74020.1802  47.1%     -    1s
     0     0 74020.1802    0  171 139995.000 74020.1802  47.1%     -    1s
     0     0 74020.1802    0  151 139995.000 74020.1802  47.1%     -    1s
     0     0 74020.1802    0  148 139995.000 74020.1802  47.1%     -    1s
     0     0 74020.1802    0  169 139995.000 74020.1802  47.1%     -    2s
     0     0 74020.1802    0  161 139995.000 74020.1802  47.1%     -    2s
     0     0 74020.1802    0  163 139995.000 74020.1802  47.1%     -    2s
     0     0 74020.1802    0  163 139995.000 74020.1802  47.1%     -    2s
     0     0 74201.0369    0  167 139995.000 74201.0369  47.0%     -    2s
     0     0 74211.9524    0  165 139995.000 74211.9524  47.0%     -    2s
H    0     0                    138455.00000 74211.9524  46.4%     -    2s
     0     0 74212.8903    0  136 138455.000 74212.8903  46.4%     -    2s
H    0     0                    106970.00000 74212.8903  30.6%     -    2s
     0     0 74212.9635    0  165 106970.000 74212.9635  30.6%     -    2s
     0     0 74224.9618    0  184 106970.000 74224.9618  30.6%     -    2s
     0     0 74224.9618    0  184 106970.000 74224.9618  30.6%     -    2s
     0     0 74238.8104    0  184 106970.000 74238.8104  30.6%     -    2s
     0     0 74240.0134    0  184 106970.000 74240.0134  30.6%     -    2s
     0     0 74248.9576    0  184 106970.000 74248.9576  30.6%     -    2s
     0     0 74248.9576    0  184 106970.000 74248.9576  30.6%     -    2s
     0     0 74254.7533    0  184 106970.000 74254.7533  30.6%     -    2s
     0     0 74254.7533    0  184 106970.000 74254.7533  30.6%     -    2s
     0     0 74267.9744    0  184 106970.000 74267.9744  30.6%     -    2s
     0     0 74267.9744    0  184 106970.000 74267.9744  30.6%     -    2s
     0     0 74267.9886    0  182 106970.000 74267.9886  30.6%     -    2s
     0     0 74273.4022    0  182 106970.000 74273.4022  30.6%     -    2s
     0     0 74278.6285    0  166 106970.000 74278.6285  30.6%     -    2s
     0     2 74278.6285    0  144 106970.000 74278.6285  30.6%     -    3s
   477   170 88877.2615   19  110 106970.000 74278.6285  30.6%  16.6    5s
H 2647   657                    105250.00000 74278.6285  29.4%  12.3    8s
  3561   986 infeasible   14      105250.000 74566.9428  29.2%  11.7   10s
  6880  1146     cutoff   31      105250.000 76090.0053  27.7%  11.6   16s
 10407  1490 100751.292   69  112 105250.000 84863.5183  19.4%  11.2   20s

Cutting planes:
  MIR: 10
  StrongCG: 1
  RLT: 1

Explored 11110 nodes (129026 simplex iterations) in 25.00 seconds (2.09 work units)
Thread count was 32 (of 128 available processors)

Solution count 10: 105250 106970 106970 ... 177795

Optimal solution found (tolerance 1.00e-10)
Best objective 1.052500000000e+05, best bound 1.052500000000e+05, gap 0.0000%
